feasible solution found by trivial heuristic after 0.0 seconds, objective value 6.179000e+03
presolving:
(round 1, fast)       210 del vars, 210 del conss, 0 add conss, 0 chg bounds, 0 chg sides, 0 chg coeffs, 0 upgd conss, 0 impls, 200 clqs
   (0.0s) running MILP presolver
   (0.0s) MILP presolver found nothing
(round 2, exhaustive) 210 del vars, 210 del conss, 0 add conss, 0 chg bounds, 0 chg sides, 0 chg coeffs, 210 upgd conss, 0 impls, 200 clqs
   (0.1s) probing: 51/2000 (2.5%) - 0 fixings, 0 aggregations, 0 implications, 0 bound changes
   (0.1s) probing aborted: 50/50 successive totally useless probings
   (0.1s) symmetry computation started: requiring (bin +, int -, cont +), (fixed: bin -, int +, cont -)
   (0.1s) symmetry computation finished: 25 generators found (max: 1500, log10 of symmetry group size: 7.7)
presolving (3 rounds: 3 fast, 2 medium, 2 exhaustive):
 210 deleted vars, 210 deleted constraints, 0 added constraints, 0 tightened bounds, 0 added holes, 0 changed sides, 0 changed coefficients
 0 implications, 200 cliques
presolved problem has 2000 variables (2000 bin, 0 int, 0 impl, 0 cont) and 210 constraints
     10 constraints of type <knapsack>
    200 constraints of type <setppc>
transformed objective value is always integral (scale: 1)
Presolving Time: 0.06
transformed 1/1 original solutions to the transformed problem space

 time | node  | left  |LP iter|LP it/n|mem/heur|mdpt |vars |cons |rows |cuts |sepa|confs|strbr|  dualbound   | primalbound  |  gap   | compl. 
p 0.1s|     1 |     0 |     0 |     - |  clique|   0 |2000 | 210 | 210 |   0 |  0 |   0 |   0 | 4.910900e+04 | 8.249000e+03 | 495.33%| unknown
  0.3s|     1 |     0 |   691 |     - |    34M |   0 |2000 | 210 | 210 |   0 |  0 |   0 |   0 | 9.273000e+03 | 8.249000e+03 |  12.41%| unknown
r 0.3s|     1 |     0 |   691 |     - |simplero|   0 |2000 | 210 | 210 |   0 |  0 |   0 |   0 | 9.273000e+03 | 9.114000e+03 |   1.74%| unknown
r 0.3s|     1 |     0 |   691 |     - |shifting|   0 |2000 | 210 | 210 |   0 |  0 |   0 |   0 | 9.273000e+03 | 9.135000e+03 |   1.51%| unknown
i 0.3s|     1 |     0 |   691 |     - |  oneopt|   0 |2000 | 210 | 210 |   0 |  0 |   0 |   0 | 9.273000e+03 | 9.209000e+03 |   0.69%| unknown
  0.4s|     1 |     0 |   717 |     - |    35M |   0 |2000 | 210 | 220 |  10 |  1 |   0 |   0 | 9.273000e+03 | 9.209000e+03 |   0.69%| unknown
  0.4s|     1 |     0 |   739 |     - |    35M |   0 |2000 | 210 | 230 |  20 |  2 |   0 |   0 | 9.273000e+03 | 9.209000e+03 |   0.69%| unknown
  0.4s|     1 |     0 |   776 |     - |    35M |   0 |2000 | 210 | 240 |  30 |  3 |   0 |   0 | 9.273000e+03 | 9.209000e+03 |   0.69%| unknown
  0.4s|     1 |     0 |   803 |     - |    35M |   0 |2000 | 210 | 250 |  40 |  4 |   0 |   0 | 9.273000e+03 | 9.209000e+03 |   0.69%| unknown
  0.5s|     1 |     0 |   836 |     - |    36M |   0 |2000 | 210 | 260 |  50 |  5 |   0 |   0 | 9.273000e+03 | 9.209000e+03 |   0.69%| unknown
  0.5s|     1 |     0 |   875 |     - |    36M |   0 |2000 | 210 | 268 |  58 |  6 |   0 |   0 | 9.273000e+03 | 9.209000e+03 |   0.69%| unknown
  0.6s|     1 |     0 |   905 |     - |    36M |   0 |2000 | 210 | 276 |  66 |  7 |   0 |   0 | 9.273000e+03 | 9.209000e+03 |   0.69%| unknown
  0.6s|     1 |     0 |   939 |     - |    36M |   0 |2000 | 210 | 284 |  74 |  8 |   0 |   0 | 9.273000e+03 | 9.209000e+03 |   0.69%| unknown
  0.7s|     1 |     0 |   973 |     - |    37M |   0 |2000 | 210 | 292 |  82 |  9 |   0 |   0 | 9.273000e+03 | 9.209000e+03 |   0.69%| unknown
  0.8s|     1 |     0 |  1011 |     - |    38M |   0 |2000 | 210 | 298 |  88 | 10 |   0 |   0 | 9.273000e+03 | 9.209000e+03 |   0.69%| unknown
 time | node  | left  |LP iter|LP it/n|mem/heur|mdpt |vars |cons |rows |cuts |sepa|confs|strbr|  dualbound   | primalbound  |  gap   | compl. 
  0.8s|     1 |     0 |  1055 |     - |    38M |   0 |2000 | 210 | 307 |  97 | 11 |   0 |   0 | 9.273000e+03 | 9.209000e+03 |   0.69%| unknown
d 1.0s|     1 |     0 |  1613 |     - |farkasdi|   0 |2000 | 210 | 307 |   0 | 11 |   0 |   0 | 9.273000e+03 | 9.209000e+03 |   0.69%| unknown
d 1.0s|     1 |     0 |  1638 |     - |farkasdi|   0 |2000 | 210 | 307 |   0 | 11 |   0 |   0 | 9.273000e+03 | 9.210000e+03 |   0.68%| unknown
L 1.3s|     1 |     0 |  1639 |     - |    rens|   0 |2000 | 210 | 307 |  97 | 11 |   0 |   0 | 9.273000e+03 | 9.234000e+03 |   0.42%| unknown
  1.4s|     1 |     0 |  1639 |     - |    41M |   0 |2000 | 210 | 307 |  97 | 11 |   0 |   0 | 9.273000e+03 | 9.234000e+03 |   0.42%| unknown
i 1.4s|     1 |     0 |  1639 |     - |  oneopt|   0 |2000 | 210 | 307 |  97 | 11 |   0 |   0 | 9.273000e+03 | 9.251000e+03 |   0.24%| unknown
  1.4s|     1 |     0 |  1678 |     - |    41M |   0 |2000 | 210 | 315 | 105 | 12 |   0 |   0 | 9.273000e+03 | 9.251000e+03 |   0.24%| unknown
  1.4s|     1 |     0 |  1678 |     - |    41M |   0 |2000 | 210 | 301 | 105 | 12 |   0 |   0 | 9.273000e+03 | 9.251000e+03 |   0.24%| unknown
  1.4s|     1 |     0 |  1729 |     - |    41M |   0 |2000 | 210 | 305 | 109 | 13 |   0 |   0 | 9.273000e+03 | 9.251000e+03 |   0.24%| unknown
  1.9s|     1 |     2 |  1736 |     - |    41M |   0 |2000 | 196 | 305 | 109 | 13 |   0 |  39 | 9.273000e+03 | 9.251000e+03 |   0.24%| unknown
(run 1, node 1) restarting after 140 global fixings of integer variables

(restart) converted 63 cuts from the global cut pool into linear constraints

presolving:
(round 1, fast)       140 del vars, 0 del conss, 0 add conss, 0 chg bounds, 0 chg sides, 0 chg coeffs, 0 upgd conss, 0 impls, 186 clqs
(round 2, exhaustive) 140 del vars, 1 del conss, 0 add conss, 0 chg bounds, 1 chg sides, 0 chg coeffs, 0 upgd conss, 0 impls, 186 clqs
(round 3, exhaustive) 140 del vars, 1 del conss, 0 add conss, 0 chg bounds, 1 chg sides, 0 chg coeffs, 62 upgd conss, 0 impls, 186 clqs
presolving (4 rounds: 4 fast, 3 medium, 3 exhaustive):
 140 deleted vars, 1 deleted constraints, 0 added constraints, 0 tightened bounds, 0 added holes, 1 changed sides, 0 changed coefficients
 0 implications, 186 cliques
presolved problem has 1860 variables (1860 bin, 0 int, 0 impl, 0 cont) and 258 constraints
     70 constraints of type <knapsack>
    186 constraints of type <setppc>
      2 constraints of type <logicor>
transformed objective value is always integral (scale: 1)
Presolving Time: 0.13
transformed 100/100 original solutions to the transformed problem space

 time | node  | left  |LP iter|LP it/n|mem/heur|mdpt |vars |cons |rows |cuts |sepa|confs|strbr|  dualbound   | primalbound  |  gap   | compl. 
  2.1s|     1 |     0 |  2205 |     - |    48M |   0 |1860 | 258 | 258 |   0 |  0 |   0 |  39 | 9.273000e+03 | 9.251000e+03 |   0.24%| unknown
  2.3s|     1 |     0 |  2226 |     - |    48M |   0 |1860 | 258 | 267 |   9 |  1 |   0 |  39 | 9.273000e+03 | 9.251000e+03 |   0.24%| unknown
  2.3s|     1 |     0 |  2250 |     - |    49M |   0 |1860 | 258 | 276 |  18 |  2 |   0 |  39 | 9.273000e+03 | 9.251000e+03 |   0.24%| unknown
  2.4s|     1 |     0 |  2269 |     - |    49M |   0 |1860 | 258 | 287 |  29 |  3 |   0 |  39 | 9.273000e+03 | 9.251000e+03 |   0.24%| unknown
  2.5s|     1 |     0 |  2279 |     - |    50M |   0 |1860 | 258 | 294 |  36 |  4 |   0 |  39 | 9.273000e+03 | 9.251000e+03 |   0.24%| unknown
  2.5s|     1 |     0 |  2309 |     - |    50M |   0 |1860 | 258 | 304 |  46 |  5 |   0 |  39 | 9.273000e+03 | 9.251000e+03 |   0.24%| unknown
  2.5s|     1 |     0 |  2335 |     - |    50M |   0 |1860 | 258 | 314 |  56 |  6 |   0 |  39 | 9.273000e+03 | 9.251000e+03 |   0.24%| unknown
  2.6s|     1 |     0 |  2372 |     - |    50M |   0 |1860 | 258 | 324 |  66 |  7 |   0 |  39 | 9.273000e+03 | 9.251000e+03 |   0.24%| unknown
  2.6s|     1 |     0 |  2405 |     - |    50M |   0 |1860 | 258 | 332 |  74 |  8 |   0 |  39 | 9.273000e+03 | 9.251000e+03 |   0.24%| unknown
  2.6s|     1 |     0 |  2447 |     - |    50M |   0 |1860 | 258 | 342 |  84 |  9 |   0 |  39 | 9.273000e+03 | 9.251000e+03 |   0.24%| unknown
  2.7s|     1 |     0 |  2472 |     - |    51M |   0 |1860 | 258 | 350 |  92 | 10 |   0 |  39 | 9.273000e+03 | 9.251000e+03 |   0.24%| unknown
  2.7s|     1 |     0 |  2509 |     - |    51M |   0 |1860 | 258 | 360 | 102 | 11 |   0 |  39 | 9.273000e+03 | 9.251000e+03 |   0.24%| unknown
L 3.4s|     1 |     0 |  3288 |     - |    rens|   0 |1860 | 258 | 360 | 102 | 11 |   0 |  39 | 9.273000e+03 | 9.256000e+03 |   0.18%| unknown
  3.4s|     1 |     0 |  3288 |     - |    51M |   0 |1860 | 258 | 360 | 102 | 11 |   0 |  39 | 9.273000e+03 | 9.256000e+03 |   0.18%| unknown
  3.4s|     1 |     0 |  3288 |     - |    51M |   0 |1860 | 258 | 347 | 102 | 11 |   0 |  39 | 9.273000e+03 | 9.256000e+03 |   0.18%| unknown
 time | node  | left  |LP iter|LP it/n|mem/heur|mdpt |vars |cons |rows |cuts |sepa|confs|strbr|  dualbound   | primalbound  |  gap   | compl. 
  3.4s|     1 |     0 |  3343 |     - |    52M |   0 |1860 | 245 | 357 | 112 | 12 |   0 |  39 | 9.273000e+03 | 9.256000e+03 |   0.18%| unknown
  3.4s|     1 |     0 |  3407 |     - |    52M |   0 |1860 | 245 | 362 | 117 | 13 |   0 |  39 | 9.273000e+03 | 9.256000e+03 |   0.18%| unknown
  3.6s|     1 |     2 |  3411 |     - |    52M |   0 |1860 | 245 | 362 | 117 | 13 |   0 |  58 | 9.273000e+03 | 9.256000e+03 |   0.18%| unknown
  7.2s|   100 |   101 |  4290 |  22.5 |    56M |  69 |1860 | 245 | 258 | 193 |  1 |   0 | 102 | 9.273000e+03 | 9.256000e+03 |   0.18%| unknown
  9.1s|   200 |   201 |  6984 |  24.7 |    57M | 112 |1860 | 265 | 254 | 193 |  1 |  20 | 355 | 9.273000e+03 | 9.256000e+03 |   0.18%| unknown
*10.0s|   216 |   209 |  7028 |  23.1 |strongbr| 128 |1860 | 265 | 254 | 193 |  1 |  20 | 415 | 9.273000e+03 | 9.258000e+03 |   0.16%| unknown
 10.8s|   300 |   287 |  7708 |  18.9 |    61M | 133 |1860 | 306 | 254 | 246 |  1 |  61 | 484 | 9.273000e+03 | 9.258000e+03 |   0.16%| unknown
 11.6s|   400 |   387 |  8420 |  16.0 |    64M | 133 |1860 | 308 | 252 | 283 |  1 |  63 | 537 | 9.273000e+03 | 9.258000e+03 |   0.16%| unknown
 12.9s|   500 |   487 |  9047 |  14.0 |    68M | 133 |1860 | 308 | 252 | 331 |  1 |  63 | 618 | 9.273000e+03 | 9.258000e+03 |   0.16%| unknown
 13.5s|   600 |   587 |  9593 |  12.6 |    68M | 133 |1860 | 308 | 259 | 354 |  1 |  63 | 741 | 9.273000e+03 | 9.258000e+03 |   0.16%| unknown
 14.4s|   700 |   687 | 10345 |  11.9 |    69M | 133 |1860 | 338 | 250 | 412 |  1 |  93 | 858 | 9.273000e+03 | 9.258000e+03 |   0.16%| unknown
 15.3s|   800 |   787 | 11193 |  11.4 |    70M | 133 |1860 | 348 | 261 | 471 |  1 | 103 | 898 | 9.273000e+03 | 9.258000e+03 |   0.16%| unknown
 16.1s|   900 |   887 | 11719 |  10.8 |    71M | 133 |1860 | 452 | 261 | 495 |  1 | 207 |1004 | 9.273000e+03 | 9.258000e+03 |   0.16%| unknown
 16.8s|  1000 |   987 | 12423 |  10.4 |    72M | 133 |1860 | 467 | 268 | 496 |  1 | 222 |1090 | 9.273000e+03 | 9.258000e+03 |   0.16%| unknown
 18.1s|  1100 |  1081 | 13001 |  10.0 |    73M | 133 |1860 | 478 | 268 | 496 |  1 | 233 |1135 | 9.273000e+03 | 9.258000e+03 |   0.16%| unknown
 time | node  | left  |LP iter|LP it/n|mem/heur|mdpt |vars |cons |rows |cuts |sepa|confs|strbr|  dualbound   | primalbound  |  gap   | compl. 
 18.8s|  1200 |  1175 | 13465 |   9.5 |    73M | 133 |1860 | 494 | 258 | 513 |  2 | 249 |1189 | 9.273000e+03 | 9.258000e+03 |   0.16%| unknown
 19.4s|  1300 |  1275 | 13946 |   9.2 |    73M | 133 |1860 | 494 | 258 | 516 |  1 | 249 |1318 | 9.273000e+03 | 9.258000e+03 |   0.16%| unknown
 20.3s|  1400 |  1375 | 14438 |   8.9 |    73M | 133 |1860 | 494 | 258 | 516 |  1 | 249 |1419 | 9.273000e+03 | 9.258000e+03 |   0.16%| unknown
r20.6s|  1450 |  1398 | 14644 |   8.7 |shifting| 133 |1860 | 496 | 258 | 516 |  0 | 251 |1460 | 9.273000e+03 | 9.259000e+03 |   0.15%| unknown
 21.0s|  1500 |  1450 | 14959 |   8.6 |    73M | 133 |1860 | 496 | 258 | 516 |  1 | 251 |1487 | 9.273000e+03 | 9.259000e+03 |   0.15%| unknown
 24.0s|  1600 |  1548 | 15355 |   8.3 |    73M | 133 |1860 | 496 | 259 | 519 |  1 | 251 |1529 | 9.273000e+03 | 9.259000e+03 |   0.15%| unknown
 24.4s|  1700 |  1642 | 15996 |   8.2 |    73M | 133 |1860 | 506 | 258 | 522 |  2 | 261 |1560 | 9.273000e+03 | 9.259000e+03 |   0.15%| unknown
 24.9s|  1800 |  1738 | 17052 |   8.3 |    74M | 133 |1860 | 503 | 258 | 522 |  1 | 261 |1595 | 9.273000e+03 | 9.259000e+03 |   0.15%| unknown
 25.4s|  1900 |  1832 | 17624 |   8.2 |    74M | 133 |1860 | 521 | 258 | 535 |  1 | 281 |1640 | 9.273000e+03 | 9.259000e+03 |   0.15%| unknown
L25.9s|  1988 |     0 | 17977 |   8.0 |crossove| 133 |1860 | 533 | 258 | 535 |  1 | 293 |1682 | 9.273000e+03 | 9.273000e+03 |   0.00%| 100.00%

SCIP Status        : problem is solved [optimal solution found]
Solving Time (sec) : 25.90
Solving Nodes      : 1988 (total of 1989 nodes in 2 runs)
Primal Bound       : +9.27300000000000e+03 (589 solutions)
Dual Bound         : +9.27300000000000e+03
Gap                : 0.00 %
Solve Status: optimal
Solve Time: 25.90 seconds
